
(set-logic ALL) 

(declare-datatype MyList ((Nil) (Cons (head Real) (tail MyList)) )) 
(declare-fun l0 () MyList) 
(declare-fun l1 () MyList) 
(declare-fun l2 () MyList) 
(declare-fun l3 () MyList) 
(declare-fun i0 () Real) 
(declare-fun i1 () Real) 
(assert (or (= l1 Nil) (is-Cons Nil)) )
(assert (is-Nil l3) )
(assert (= l2 Nil) )
(assert (is-Cons Nil) )
(assert (or (= l3 Nil) (= l1 l2) (= l0 Nil) (= l0 Nil)) )
(assert (or (= l2 l3) (is-Cons Nil)) )
(assert (and (= l2 l3) (is-Cons Nil) (= l0 Nil) (is-Cons l1)) )
(assert (is-Cons Nil) )
(check-sat)
